; SWAP1 CALLER SWAP1 DUP5 SWAP1 => DUP4 CALLER SWAP2 SWAP3
(set-option :produce-proofs true)
; 
(set-info :status unknown)
(declare-fun storage_t ((_ BitVec 256) (_ BitVec 256) (_ BitVec 256) (_ BitVec 256) (_ BitVec 256) Int (_ BitVec 256)) (_ BitVec 256))
(declare-fun storage_s ((_ BitVec 256) (_ BitVec 256) (_ BitVec 256) (_ BitVec 256) (_ BitVec 256) Int (_ BitVec 256)) (_ BitVec 256))
(declare-fun exc_halt_t (Int) Bool)
(declare-fun exc_halt_s (Int) Bool)
(declare-fun sc_t (Int) (_ BitVec 6))
(declare-fun stack_t ((_ BitVec 256) (_ BitVec 256) (_ BitVec 256) (_ BitVec 256) (_ BitVec 256) Int (_ BitVec 6)) (_ BitVec 256))
(declare-fun stack_s ((_ BitVec 256) (_ BitVec 256) (_ BitVec 256) (_ BitVec 256) (_ BitVec 256) Int (_ BitVec 6)) (_ BitVec 256))
(declare-fun sc_s (Int) (_ BitVec 6))
(declare-fun used_gas_t ((_ BitVec 256) (_ BitVec 256) (_ BitVec 256) (_ BitVec 256) (_ BitVec 256) Int) Int)
(declare-fun used_gas_s ((_ BitVec 256) (_ BitVec 256) (_ BitVec 256) (_ BitVec 256) (_ BitVec 256) Int) Int)
(assert
 (exists ((x_0 (_ BitVec 256)) (x_1 (_ BitVec 256)) (x_2 (_ BitVec 256)) (x_3 (_ BitVec 256)) (x_CALLER (_ BitVec 256)) )(let (($x9886 (forall ((w (_ BitVec 256)) )(let ((?x2416 (storage_t x_0 x_1 x_2 x_3 x_CALLER 4 w)))
 (let ((?x8628 (storage_s x_0 x_1 x_2 x_3 x_CALLER 5 w)))
 (= ?x8628 ?x2416))))
 ))
 (let (($x7854 (exc_halt_t 4)))
 (let (($x11317 (exc_halt_s 5)))
 (let (($x194 (= $x11317 $x7854)))
 (let (($x10487 (forall ((n (_ BitVec 6)) )(let ((?x4818 (sc_t 4)))
 (let (($x4903 (bvsle ?x4818 n)))
 (let ((?x11822 (stack_t x_0 x_1 x_2 x_3 x_CALLER 4 n)))
 (let ((?x1961 (stack_s x_0 x_1 x_2 x_3 x_CALLER 5 n)))
 (let (($x1424 (= ?x1961 ?x11822)))
 (or $x1424 $x4903)))))))
 ))
 (let ((?x4818 (sc_t 4)))
 (let ((?x4319 (sc_s 5)))
 (let (($x10474 (= ?x4319 ?x4818)))
 (let ((?x379 (used_gas_t x_0 x_1 x_2 x_3 x_CALLER 0)))
 (let ((?x4969 (used_gas_s x_0 x_1 x_2 x_3 x_CALLER 0)))
 (let (($x10988 (= ?x4969 ?x379)))
 (let (($x3570 (forall ((w (_ BitVec 256)) )(let ((?x7031 (storage_t x_0 x_1 x_2 x_3 x_CALLER 0 w)))
 (let ((?x4260 (storage_s x_0 x_1 x_2 x_3 x_CALLER 0 w)))
 (= ?x4260 ?x7031))))
 ))
 (let (($x56 (exc_halt_t 0)))
 (let (($x57 (exc_halt_s 0)))
 (let (($x58 (= $x57 $x56)))
 (let (($x10136 (forall ((n (_ BitVec 6)) )(let ((?x63 (sc_t 0)))
 (let (($x11399 (bvsle ?x63 n)))
 (let ((?x10502 (stack_t x_0 x_1 x_2 x_3 x_CALLER 0 n)))
 (let ((?x10853 (stack_s x_0 x_1 x_2 x_3 x_CALLER 0 n)))
 (let (($x10805 (= ?x10853 ?x10502)))
 (or $x10805 $x11399)))))))
 ))
 (let ((?x63 (sc_t 0)))
 (let ((?x72 (sc_s 0)))
 (let (($x73 (= ?x72 ?x63)))
 (let (($x3842 (= $x7854 (or (exc_halt_t 3) (not (bvsle (_ bv0 6) (bvadd (_ bv60 6) (sc_t 3))))))))
 (let (($x467 (forall ((w (_ BitVec 256)) )(let ((?x3339 (storage_t x_0 x_1 x_2 x_3 x_CALLER 3 w)))
 (let ((?x2416 (storage_t x_0 x_1 x_2 x_3 x_CALLER 4 w)))
 (= ?x2416 ?x3339))))
 ))
 (let (($x759 (forall ((n (_ BitVec 6)) )(let ((?x1290 (stack_t x_0 x_1 x_2 x_3 x_CALLER 3 n)))
 (let ((?x11822 (stack_t x_0 x_1 x_2 x_3 x_CALLER 4 n)))
 (or (= ?x11822 ?x1290) (bvsle (bvadd (_ bv60 6) (sc_t 3)) n)))))
 ))
 (let (($x4830 (= (used_gas_t x_0 x_1 x_2 x_3 x_CALLER 4) (+ 3 (used_gas_t x_0 x_1 x_2 x_3 x_CALLER 3)))))
 (let ((?x11304 (sc_t 3)))
 (let ((?x305 (bvadd (_ bv62 6) ?x11304)))
 (let ((?x10723 (stack_t x_0 x_1 x_2 x_3 x_CALLER 3 ?x305)))
 (let ((?x3237 (bvadd (_ bv61 6) ?x11304)))
 (let ((?x8579 (stack_t x_0 x_1 x_2 x_3 x_CALLER 3 ?x3237)))
 (let ((?x3412 (bvadd (_ bv63 6) ?x11304)))
 (let ((?x6400 (stack_t x_0 x_1 x_2 x_3 x_CALLER 3 ?x3412)))
 (let (($x5487 (= (stack_t x_0 x_1 x_2 x_3 x_CALLER 4 (bvadd (_ bv63 6) ?x4818)) (stack_t x_0 x_1 x_2 x_3 x_CALLER 3 (bvadd (_ bv60 6) ?x11304)))))
 (let (($x3614 (exc_halt_t 3)))
 (let (($x10435 (= $x3614 (or (exc_halt_t 2) (not (bvsle (_ bv0 6) (bvadd (_ bv61 6) (sc_t 2))))))))
 (let (($x11453 (forall ((w (_ BitVec 256)) )(let ((?x10495 (storage_t x_0 x_1 x_2 x_3 x_CALLER 2 w)))
 (let ((?x3339 (storage_t x_0 x_1 x_2 x_3 x_CALLER 3 w)))
 (= ?x3339 ?x10495))))
 ))
 (let (($x4643 (forall ((n (_ BitVec 6)) )(let ((?x10579 (stack_t x_0 x_1 x_2 x_3 x_CALLER 2 n)))
 (let ((?x1290 (stack_t x_0 x_1 x_2 x_3 x_CALLER 3 n)))
 (let ((?x2714 (sc_t 2)))
 (let ((?x4747 (bvadd (_ bv61 6) ?x2714)))
 (let (($x2417 (bvsle ?x4747 n)))
 (or $x2417 (= ?x1290 ?x10579))))))))
 ))
 (let ((?x2714 (sc_t 2)))
 (let (($x11170 (= ?x11304 ?x2714)))
 (let ((?x1926 (used_gas_t x_0 x_1 x_2 x_3 x_CALLER 3)))
 (let (($x8377 (exc_halt_t 1)))
 (let (($x9056 (or $x8377 (not (= ((_ extract 6 6) (bvadd (_ bv1 7) (concat (_ bv0 1) (sc_t 1)))) (_ bv0 1))))))
 (let (($x9627 (exc_halt_t 2)))
 (let (($x8102 (= $x9627 $x9056)))
 (let (($x4595 (forall ((w (_ BitVec 256)) )(let ((?x4983 (storage_t x_0 x_1 x_2 x_3 x_CALLER 1 w)))
 (let ((?x10495 (storage_t x_0 x_1 x_2 x_3 x_CALLER 2 w)))
 (= ?x10495 ?x4983))))
 ))
 (let (($x4031 (forall ((n (_ BitVec 6)) )(let ((?x6600 (stack_t x_0 x_1 x_2 x_3 x_CALLER 1 n)))
 (let ((?x10579 (stack_t x_0 x_1 x_2 x_3 x_CALLER 2 n)))
 (let ((?x7154 (sc_t 1)))
 (let (($x2077 (bvsle ?x7154 n)))
 (or $x2077 (= ?x10579 ?x6600)))))))
 ))
 (let (($x8876 (= ?x2714 (bvadd (_ bv1 6) (sc_t 1)))))
 (let ((?x11532 (used_gas_t x_0 x_1 x_2 x_3 x_CALLER 2)))
 (let (($x1297 (not (= ((_ extract 6 6) (bvadd (_ bv1 7) (concat (_ bv0 1) ?x63))) (_ bv0 1)))))
 (let (($x8851 (forall ((w (_ BitVec 256)) )(let ((?x7031 (storage_t x_0 x_1 x_2 x_3 x_CALLER 0 w)))
 (let ((?x4983 (storage_t x_0 x_1 x_2 x_3 x_CALLER 1 w)))
 (= ?x4983 ?x7031))))
 ))
 (let (($x7142 (forall ((n (_ BitVec 6)) )(let ((?x10502 (stack_t x_0 x_1 x_2 x_3 x_CALLER 0 n)))
 (let ((?x6600 (stack_t x_0 x_1 x_2 x_3 x_CALLER 1 n)))
 (or (bvsle (bvadd (_ bv60 6) (sc_t 0)) n) (= ?x6600 ?x10502)))))
 ))
 (let ((?x7154 (sc_t 1)))
 (let (($x3155 (= ?x7154 (bvadd (_ bv1 6) ?x63))))
 (let (($x11486 (= (stack_t x_0 x_1 x_2 x_3 x_CALLER 1 (bvadd (_ bv63 6) ?x63)) (stack_t x_0 x_1 x_2 x_3 x_CALLER 0 (bvadd (_ bv63 6) ?x63)))))
 (let (($x10509 (= (stack_t x_0 x_1 x_2 x_3 x_CALLER 1 (bvadd (_ bv62 6) ?x63)) (stack_t x_0 x_1 x_2 x_3 x_CALLER 0 (bvadd (_ bv62 6) ?x63)))))
 (let (($x4452 (= (stack_t x_0 x_1 x_2 x_3 x_CALLER 1 (bvadd (_ bv61 6) ?x63)) (stack_t x_0 x_1 x_2 x_3 x_CALLER 0 (bvadd (_ bv61 6) ?x63)))))
 (let ((?x6617 (bvadd (_ bv60 6) ?x63)))
 (let ((?x2248 (stack_t x_0 x_1 x_2 x_3 x_CALLER 0 ?x6617)))
 (let (($x4244 (= $x11317 (or (exc_halt_s 4) (not (bvsle (_ bv0 6) (bvadd (_ bv62 6) (sc_s 4))))))))
 (let (($x1285 (forall ((w (_ BitVec 256)) )(let ((?x10741 (storage_s x_0 x_1 x_2 x_3 x_CALLER 4 w)))
 (let ((?x8628 (storage_s x_0 x_1 x_2 x_3 x_CALLER 5 w)))
 (= ?x8628 ?x10741))))
 ))
 (let (($x1954 (forall ((n (_ BitVec 6)) )(let ((?x11315 (stack_s x_0 x_1 x_2 x_3 x_CALLER 4 n)))
 (let ((?x1961 (stack_s x_0 x_1 x_2 x_3 x_CALLER 5 n)))
 (or (= ?x1961 ?x11315) (bvsle (bvadd (_ bv62 6) (sc_s 4)) n)))))
 ))
 (let ((?x4305 (sc_s 4)))
 (let (($x3039 (= ?x4319 ?x4305)))
 (let (($x3072 (= (used_gas_s x_0 x_1 x_2 x_3 x_CALLER 5) (+ 3 (used_gas_s x_0 x_1 x_2 x_3 x_CALLER 4)))))
 (let ((?x4400 (bvadd (_ bv63 6) ?x4305)))
 (let ((?x1294 (stack_s x_0 x_1 x_2 x_3 x_CALLER 4 ?x4400)))
 (let (($x9680 (= (stack_s x_0 x_1 x_2 x_3 x_CALLER 5 (bvadd (_ bv63 6) ?x4319)) (stack_s x_0 x_1 x_2 x_3 x_CALLER 4 (bvadd (_ bv62 6) ?x4305)))))
 (let (($x292 (exc_halt_s 3)))
 (let (($x2400 (or $x292 (not (= ((_ extract 6 6) (bvadd (_ bv1 7) (concat (_ bv0 1) (sc_s 3)))) (_ bv0 1))) (not (bvsle (_ bv0 6) (bvadd (_ bv59 6) (sc_s 3)))))))
 (let (($x7172 (exc_halt_s 4)))
 (let (($x11023 (forall ((w (_ BitVec 256)) )(let ((?x11517 (storage_s x_0 x_1 x_2 x_3 x_CALLER 3 w)))
 (let ((?x10741 (storage_s x_0 x_1 x_2 x_3 x_CALLER 4 w)))
 (= ?x10741 ?x11517))))
 ))
 (let (($x7417 (forall ((n (_ BitVec 6)) )(let ((?x1639 (stack_s x_0 x_1 x_2 x_3 x_CALLER 3 n)))
 (let ((?x11315 (stack_s x_0 x_1 x_2 x_3 x_CALLER 4 n)))
 (or (= ?x11315 ?x1639) (bvsle (bvadd (_ bv59 6) (sc_s 3)) n)))))
 ))
 (let ((?x1521 (used_gas_s x_0 x_1 x_2 x_3 x_CALLER 4)))
 (let ((?x275 (sc_s 3)))
 (let ((?x6326 (bvadd (_ bv63 6) ?x275)))
 (let ((?x10178 (stack_s x_0 x_1 x_2 x_3 x_CALLER 3 ?x6326)))
 (let ((?x2713 (bvadd (_ bv62 6) ?x275)))
 (let ((?x782 (stack_s x_0 x_1 x_2 x_3 x_CALLER 3 ?x2713)))
 (let (($x7395 (= (stack_s x_0 x_1 x_2 x_3 x_CALLER 4 (bvadd (_ bv61 6) ?x275)) (stack_s x_0 x_1 x_2 x_3 x_CALLER 3 (bvadd (_ bv61 6) ?x275)))))
 (let (($x1793 (= (stack_s x_0 x_1 x_2 x_3 x_CALLER 4 (bvadd (_ bv60 6) ?x275)) (stack_s x_0 x_1 x_2 x_3 x_CALLER 3 (bvadd (_ bv60 6) ?x275)))))
 (let ((?x3797 (bvadd (_ bv59 6) ?x275)))
 (let ((?x1048 (stack_s x_0 x_1 x_2 x_3 x_CALLER 3 ?x3797)))
 (let (($x4349 (= $x292 (or (exc_halt_s 2) (not (bvsle (_ bv0 6) (bvadd (_ bv62 6) (sc_s 2))))))))
 (let (($x5816 (forall ((w (_ BitVec 256)) )(let ((?x6089 (storage_s x_0 x_1 x_2 x_3 x_CALLER 2 w)))
 (let ((?x11517 (storage_s x_0 x_1 x_2 x_3 x_CALLER 3 w)))
 (= ?x11517 ?x6089))))
 ))
 (let (($x10099 (forall ((n (_ BitVec 6)) )(let ((?x218 (sc_s 2)))
 (let ((?x11717 (bvadd (_ bv62 6) ?x218)))
 (let (($x10841 (bvsle ?x11717 n)))
 (let ((?x1129 (stack_s x_0 x_1 x_2 x_3 x_CALLER 2 n)))
 (let ((?x1639 (stack_s x_0 x_1 x_2 x_3 x_CALLER 3 n)))
 (or (= ?x1639 ?x1129) $x10841)))))))
 ))
 (let ((?x218 (sc_s 2)))
 (let (($x2385 (= ?x275 ?x218)))
 (let ((?x3485 (used_gas_s x_0 x_1 x_2 x_3 x_CALLER 3)))
 (let (($x3809 (not (= ((_ extract 6 6) (bvadd (_ bv1 7) (concat (_ bv0 1) (sc_s 1)))) (_ bv0 1)))))
 (let (($x189 (exc_halt_s 1)))
 (let (($x247 (exc_halt_s 2)))
 (let (($x1686 (= $x247 (or $x189 $x3809))))
 (let (($x3637 (forall ((w (_ BitVec 256)) )(let ((?x7563 (storage_s x_0 x_1 x_2 x_3 x_CALLER 1 w)))
 (let ((?x6089 (storage_s x_0 x_1 x_2 x_3 x_CALLER 2 w)))
 (= ?x6089 ?x7563))))
 ))
 (let (($x5380 (forall ((n (_ BitVec 6)) )(let ((?x154 (sc_s 1)))
 (let (($x11153 (bvsle ?x154 n)))
 (let ((?x9240 (stack_s x_0 x_1 x_2 x_3 x_CALLER 1 n)))
 (let ((?x1129 (stack_s x_0 x_1 x_2 x_3 x_CALLER 2 n)))
 (or (= ?x1129 ?x9240) $x11153))))))
 ))
 (let (($x10974 (= ?x218 (bvadd (_ bv1 6) (sc_s 1)))))
 (let ((?x9645 (used_gas_s x_0 x_1 x_2 x_3 x_CALLER 2)))
 (let (($x7444 (forall ((w (_ BitVec 256)) )(let ((?x4260 (storage_s x_0 x_1 x_2 x_3 x_CALLER 0 w)))
 (let ((?x7563 (storage_s x_0 x_1 x_2 x_3 x_CALLER 1 w)))
 (= ?x7563 ?x4260))))
 ))
 (let (($x2656 (forall ((n (_ BitVec 6)) )(let ((?x10853 (stack_s x_0 x_1 x_2 x_3 x_CALLER 0 n)))
 (let ((?x9240 (stack_s x_0 x_1 x_2 x_3 x_CALLER 1 n)))
 (or (= ?x9240 ?x10853) (bvsle (bvadd (_ bv62 6) (sc_s 0)) n)))))
 ))
 (let ((?x154 (sc_s 1)))
 (let (($x1448 (= ?x154 ?x72)))
 (let (($x4007 (= (stack_s x_0 x_1 x_2 x_3 x_CALLER 1 (bvadd (_ bv62 6) ?x154)) (stack_s x_0 x_1 x_2 x_3 x_CALLER 0 (bvadd (_ bv63 6) ?x72)))))
 (let (($x5162 (= (stack_s x_0 x_1 x_2 x_3 x_CALLER 1 (bvadd (_ bv63 6) ?x154)) (stack_s x_0 x_1 x_2 x_3 x_CALLER 0 (bvadd (_ bv62 6) ?x72)))))
 (let (($x5142 (forall ((w (_ BitVec 256)) )(let ((?x4260 (storage_s x_0 x_1 x_2 x_3 x_CALLER 0 w)))
 (= ?x4260 (_ bv0 256))))
 ))
 (let (($x1187 (= ?x4969 0)))
 (let (($x11580 (not $x57)))
 (let (($x6250 (= (stack_s x_0 x_1 x_2 x_3 x_CALLER 0 (_ bv3 6)) x_3)))
 (let (($x6854 (= (stack_s x_0 x_1 x_2 x_3 x_CALLER 0 (_ bv2 6)) x_2)))
 (let (($x4286 (= (stack_s x_0 x_1 x_2 x_3 x_CALLER 0 (_ bv1 6)) x_1)))
 (let (($x9803 (= (stack_s x_0 x_1 x_2 x_3 x_CALLER 0 (_ bv0 6)) x_0)))
 (let (($x11199 (= ?x72 (_ bv4 6))))
 (and $x11199 $x9803 $x4286 $x6854 $x6250 $x11580 $x1187 $x5142 $x5162 $x4007 (= (used_gas_s x_0 x_1 x_2 x_3 x_CALLER 1) (+ 3 ?x4969)) $x1448 $x2656 $x7444 (= $x189 (or $x57 (not (bvsle (_ bv0 6) (bvadd (_ bv62 6) ?x72))))) (= (stack_s x_0 x_1 x_2 x_3 x_CALLER 2 ?x154) x_CALLER) (= ?x9645 (+ 2 (used_gas_s x_0 x_1 x_2 x_3 x_CALLER 1))) $x10974 $x5380 $x3637 $x1686 (= ?x10178 (stack_s x_0 x_1 x_2 x_3 x_CALLER 2 (bvadd (_ bv62 6) ?x218))) (= ?x782 (stack_s x_0 x_1 x_2 x_3 x_CALLER 2 (bvadd (_ bv63 6) ?x218))) (= ?x3485 (+ 3 ?x9645)) $x2385 $x10099 $x5816 $x4349 (= ?x1294 ?x1048) (= (stack_s x_0 x_1 x_2 x_3 x_CALLER 4 ?x3797) ?x1048) $x1793 $x7395 (= (stack_s x_0 x_1 x_2 x_3 x_CALLER 4 ?x2713) ?x782) (= (stack_s x_0 x_1 x_2 x_3 x_CALLER 4 ?x6326) ?x10178) (= ?x1521 (+ 3 ?x3485)) (= ?x4305 (bvadd (_ bv1 6) ?x275)) $x7417 $x11023 (= $x7172 $x2400) $x9680 (= (stack_s x_0 x_1 x_2 x_3 x_CALLER 5 (bvadd (_ bv62 6) ?x4319)) ?x1294) $x3072 $x3039 $x1954 $x1285 $x4244 (= (stack_t x_0 x_1 x_2 x_3 x_CALLER 1 (bvadd (_ bv63 6) ?x7154)) ?x2248) (= (stack_t x_0 x_1 x_2 x_3 x_CALLER 1 ?x6617) ?x2248) $x4452 $x10509 $x11486 (= (used_gas_t x_0 x_1 x_2 x_3 x_CALLER 1) (+ 3 ?x379)) $x3155 $x7142 $x8851 (= $x8377 (or $x56 $x1297 (not (bvsle (_ bv0 6) ?x6617)))) (= (stack_t x_0 x_1 x_2 x_3 x_CALLER 2 ?x7154) x_CALLER) (= ?x11532 (+ 2 (used_gas_t x_0 x_1 x_2 x_3 x_CALLER 1))) $x8876 $x4031 $x4595 $x8102 (= ?x6400 (stack_t x_0 x_1 x_2 x_3 x_CALLER 2 (bvadd (_ bv61 6) ?x2714))) (= ?x8579 (stack_t x_0 x_1 x_2 x_3 x_CALLER 2 (bvadd (_ bv63 6) ?x2714))) (= ?x10723 (stack_t x_0 x_1 x_2 x_3 x_CALLER 2 (bvadd (_ bv62 6) ?x2714))) (= ?x1926 (+ 3 ?x11532)) $x11170 $x4643 $x11453 $x10435 $x5487 (= (stack_t x_0 x_1 x_2 x_3 x_CALLER 4 (bvadd (_ bv60 6) ?x4818)) ?x6400) (= (stack_t x_0 x_1 x_2 x_3 x_CALLER 4 (bvadd (_ bv61 6) ?x4818)) ?x8579) (= (stack_t x_0 x_1 x_2 x_3 x_CALLER 4 (bvadd (_ bv62 6) ?x4818)) ?x10723) $x4830 (= ?x4818 ?x11304) $x759 $x467 $x3842 $x73 $x10136 $x58 $x3570 $x10988 (not (and $x10474 $x10487 $x194 $x9886))))))))))))))))))))))))))))))))))))))))))))))))))))))))))))))))))))))))))))))))))))))))))))))))))))))))))))))))
 )
(check-sat)
(get-proof)
